NAME 
ROWS
 N  OBJ
 L  R0      
 L  R1      
 L  R2      
 E  R3      
 E  R4      
 E  R5      
 E  R6      
 E  R7      
 E  R8      
 E  R9      
 E  R10     
 E  R11     
 E  R12     
COLUMNS
    MARKER    'MARKER'                 'INTORG'
    I0(9)     OBJ       -44
    I0(9)     R0        -27
    I0(9)     R1        27
    I0(9)     R2        38
    I0(9)     R4        15
    I0(9)     R5        17
    I0(9)     R6        11
    I0(9)     R7        -1
    I0(9)     R8        13
    I0(9)     R12       1
    I1(9)     OBJ       -23
    I1(9)     R0        -1
    I1(9)     R1        57
    I1(9)     R2        39
    I1(9)     R4        15
    I1(9)     R5        14
    I1(9)     R6        16
    I1(9)     R7        1
    I1(9)     R8        17
    I1(9)     R12       1
    I2(8)     OBJ       140
    I2(8)     R0        -73
    I2(8)     R1        58
    I2(8)     R2        -180
    I2(8)     R3        12
    I2(8)     R5        14
    I2(8)     R6        11
    I2(8)     R7        9
    I2(8)     R12       1
    I3(7)     OBJ       43
    I3(7)     R0        177
    I3(7)     R1        115
    I3(7)     R2        -58
    I3(7)     R3        -1
    I3(7)     R6        12
    I3(7)     R7        4
    I3(7)     R12       1
    I4(9)     OBJ       32
    I4(9)     R0        -24
    I4(9)     R1        -99
    I4(9)     R2        -110
    I4(9)     R3        3
    I4(9)     R4        11
    I4(9)     R5        15
    I4(9)     R7        3
    I4(9)     R8        5
    I4(9)     R12       1
    I5(6)     OBJ       -106
    I5(6)     R0        -123
    I5(6)     R1        -111
    I5(6)     R2        -51
    I5(6)     R3        18
    I5(6)     R6        4
    I5(6)     R12       1
    MARKER    'MARKER'                 'INTEND'
    C6(11)    OBJ       5
    C6(11)    R0        4
    C6(11)    R1        1
    C6(11)    R3        4
    C6(11)    R4        10
    C6(11)    R5        10
    C6(11)    R6        17
    C6(11)    R7        1
    C6(11)    R8        3
    C6(11)    R9        18
    C6(11)    R10       4
    C6(11)    R11       3
    C7(9)     OBJ       -4
    C7(9)     R1        -1
    C7(9)     R2        -7
    C7(9)     R3        9
    C7(9)     R4        9
    C7(9)     R5        8
    C7(9)     R6        11
    C7(9)     R7        13
    C7(9)     R8        -1
    C7(9)     R11       8
    C8(9)     OBJ       6
    C8(9)     R0        9
    C8(9)     R1        7
    C8(9)     R2        5
    C8(9)     R3        14
    C8(9)     R4        10
    C8(9)     R6        2
    C8(9)     R7        18
    C8(9)     R8        3
    C8(9)     R9        6
    C9(11)    OBJ       -5
    C9(11)    R0        -2
    C9(11)    R1        -2
    C9(11)    R2        -1
    C9(11)    R3        3
    C9(11)    R5        3
    C9(11)    R6        10
    C9(11)    R7        19
    C9(11)    R8        8
    C9(11)    R9        1
    C9(11)    R10       3
    C9(11)    R11       17
    C10(1)    R3        1
    C11(1)    R4        1
    C12(1)    R5        1
    C13(1)    R6        1
    C14(1)    R7        1
    C15(1)    R8        1
    C16(1)    R9        1
    C17(1)    R10       1
    C18(1)    R11       1
    C19(1)    R12       1
RHS
    RHS1      R0        -2.4878481012658213e+02
    RHS1      R1        -2.2951898734177212e+02
    RHS1      R2        -1.3653164556962093e+02
    RHS1      R3        94
    RHS1      R4        53
    RHS1      R5        53
    RHS1      R6        74
    RHS1      R7        88
    RHS1      R8        85
    RHS1      R9        54
    RHS1      R10       58
    RHS1      R11       97
    RHS1      R12       2
BOUNDS
 UP BND1      I0(9)     2
 UP BND1      I1(9)     2
 UP BND1      I2(8)     2
 UP BND1      I3(7)     2
 UP BND1      I4(9)     2
 UP BND1      I5(6)     2
ENDATA
